 Code   531
 Dimension, Fixed Cost
   100        3000
 Facility, Client, Transportation Cost
     1        2           2
     1        6           3
     1        8           4
     1       12           2
     1       30           4
     1       51           3
     1       59           4
     1       64           2
     1       94           4
     1       96           1
     2        9           3
     2       13           1
     2       15           4
     2       48           3
     2       57           1
     2       62           1
     2       69           2
     2       73           0
     2       78           2
     2       85           2
     3       12           4
     3       28           3
     3       32           0
     3       33           4
     3       47           1
     3       55           1
     3       66           4
     3       79           3
     3       82           4
     3       92           1
     4        2           4
     4       19           0
     4       34           4
     4       53           2
     4       61           1
     4       76           4
     4       81           1
     4       85           4
     4       90           2
     4       92           4
     5       14           4
     5       21           4
     5       24           0
     5       38           3
     5       49           2
     5       73           1
     5       82           2
     5       87           3
     5       96           2
     5       98           0
     6        1           2
     6        3           4
     6        4           1
     6        5           2
     6       37           2
     6       46           0
     6       50           2
     6       72           4
     6       89           4
     6       96           4
     7        1           2
     7        7           2
     7       10           2
     7       16           3
     7       23           3
     7       26           4
     7       42           1
     7       52           2
     7       79           3
     7       92           4
     8        9           4
     8       13           0
     8       14           3
     8       36           4
     8       42           0
     8       44           4
     8       62           3
     8       86           4
     8       87           0
     8       99           4
     9        1           3
     9        8           4
     9       13           2
     9       32           4
     9       34           1
     9       37           4
     9       51           2
     9       52           2
     9       62           2
     9       91           2
    10        6           4
    10       14           0
    10       26           2
    10       35           3
    10       54           1
    10       63           4
    10       65           4
    10       82           3
    10       85           1
    10       86           4
    11        2           4
    11       29           1
    11       37           2
    11       48           0
    11       57           2
    11       59           4
    11       62           3
    11       79           3
    11       99           1
    11      100           2
    12       20           3
    12       21           2
    12       31           0
    12       39           4
    12       47           0
    12       50           3
    12       52           1
    12       66           3
    12       77           0
    12       94           2
    13       16           1
    13       20           2
    13       22           0
    13       27           1
    13       31           2
    13       38           1
    13       57           3
    13       62           3
    13       78           4
    13       99           2
    14        7           3
    14        9           3
    14       25           1
    14       30           3
    14       32           4
    14       39           1
    14       64           0
    14       72           4
    14       79           1
    14       82           0
    15       27           1
    15       28           4
    15       41           3
    15       43           3
    15       44           4
    15       47           3
    15       75           1
    15       76           1
    15       82           3
    15       85           0
    16       37           2
    16       43           1
    16       49           2
    16       55           0
    16       61           4
    16       69           3
    16       76           1
    16       92           2
    16       93           2
    16      100           2
    17        4           2
    17       21           0
    17       42           0
    17       43           1
    17       45           0
    17       75           2
    17       79           1
    17       80           2
    17       88           2
    17       93           2
    18        1           1
    18        8           2
    18       21           4
    18       51           1
    18       56           2
    18       59           1
    18       77           1
    18       79           1
    18       88           3
    18       96           2
    19       13           0
    19       16           0
    19       20           4
    19       46           0
    19       49           1
    19       53           2
    19       54           1
    19       64           1
    19       84           0
    19       93           1
    20       11           3
    20       21           1
    20       25           4
    20       41           2
    20       42           0
    20       75           2
    20       76           1
    20       82           4
    20       83           0
    20       85           2
    21        2           0
    21       32           4
    21       39           4
    21       40           4
    21       48           1
    21       51           2
    21       59           1
    21       73           0
    21       85           0
    21       99           4
    22        2           3
    22       21           4
    22       30           4
    22       31           0
    22       66           4
    22       75           4
    22       77           2
    22       79           0
    22       80           4
    22       99           0
    23        2           2
    23       10           4
    23       23           3
    23       26           1
    23       28           2
    23       38           0
    23       47           4
    23       49           1
    23       63           4
    23       87           4
    24        6           4
    24       19           2
    24       26           0
    24       39           1
    24       41           3
    24       44           4
    24       46           1
    24       49           3
    24       83           4
    24       95           0
    25        1           2
    25        5           4
    25       13           4
    25       29           0
    25       38           4
    25       52           0
    25       57           3
    25       71           0
    25       83           1
    25       93           1
    26       11           1
    26       23           0
    26       31           3
    26       37           4
    26       62           2
    26       63           3
    26       75           2
    26       78           3
    26       91           1
    26       92           2
    27        5           1
    27       10           3
    27       16           3
    27       42           3
    27       52           3
    27       80           1
    27       85           4
    27       95           2
    27       96           3
    27       99           0
    28       10           0
    28       20           0
    28       33           3
    28       51           0
    28       52           1
    28       55           1
    28       63           3
    28       65           3
    28       72           4
    28       74           1
    29       19           2
    29       40           4
    29       51           0
    29       55           2
    29       67           3
    29       74           1
    29       80           4
    29       83           0
    29       84           1
    29      100           2
    30        4           1
    30       12           1
    30       13           3
    30       25           4
    30       42           0
    30       66           4
    30       71           0
    30       72           3
    30       77           0
    30       91           3
    31       14           2
    31       43           1
    31       44           2
    31       53           4
    31       66           3
    31       74           2
    31       76           2
    31       79           2
    31       88           4
    31       93           3
    32        4           1
    32        5           0
    32       15           3
    32       22           4
    32       28           3
    32       33           4
    32       44           0
    32       46           1
    32       67           2
    32       69           3
    33        1           2
    33        7           1
    33        9           1
    33       18           0
    33       21           1
    33       40           0
    33       46           1
    33       74           0
    33       76           0
    33       81           1
    34        6           2
    34       16           2
    34       25           4
    34       33           0
    34       45           2
    34       60           3
    34       77           4
    34       83           3
    34       86           4
    34       89           3
    35        2           4
    35        7           3
    35        8           1
    35       23           2
    35       35           3
    35       61           3
    35       62           0
    35       63           2
    35       78           2
    35      100           4
    36        2           3
    36       13           4
    36       14           4
    36       17           0
    36       22           2
    36       49           4
    36       63           4
    36       79           4
    36       87           2
    36       95           3
    37        9           3
    37       12           2
    37       21           3
    37       28           1
    37       33           4
    37       36           3
    37       84           3
    37       86           4
    37       95           2
    37      100           2
    38       14           1
    38       22           4
    38       24           3
    38       33           0
    38       46           0
    38       56           4
    38       75           0
    38       81           2
    38       88           2
    38       92           4
    39        1           0
    39       11           1
    39       17           3
    39       38           0
    39       50           2
    39       53           2
    39       54           3
    39       56           2
    39       76           3
    39       83           0
    40        3           0
    40        5           0
    40        8           1
    40       28           3
    40       44           3
    40       46           1
    40       68           4
    40       88           0
    40       96           2
    40       97           1
    41        7           2
    41        9           0
    41       32           4
    41       35           4
    41       43           3
    41       51           2
    41       78           1
    41       96           2
    41       98           2
    41       99           4
    42        9           4
    42       25           1
    42       26           3
    42       40           3
    42       52           1
    42       63           3
    42       70           3
    42       82           1
    42       88           4
    42       95           4
    43       17           3
    43       30           4
    43       41           1
    43       43           4
    43       49           2
    43       51           1
    43       79           1
    43       94           3
    43       95           3
    43       99           4
    44        6           1
    44       19           4
    44       25           2
    44       26           3
    44       28           4
    44       48           0
    44       68           3
    44       91           1
    44       92           1
    44       96           0
    45       18           3
    45       23           3
    45       26           4
    45       39           3
    45       73           1
    45       74           2
    45       84           3
    45       92           2
    45       93           3
    45      100           3
    46        8           1
    46       11           0
    46       37           4
    46       43           4
    46       48           3
    46       69           4
    46       70           3
    46       82           4
    46       85           0
    46       87           0
    47        9           2
    47       18           4
    47       22           1
    47       28           1
    47       52           2
    47       68           4
    47       74           1
    47       77           0
    47       82           4
    47       99           1
    48        9           2
    48       16           1
    48       20           1
    48       44           4
    48       45           1
    48       55           2
    48       61           3
    48       76           1
    48       88           3
    48       93           2
    49        4           4
    49        6           0
    49       15           1
    49       18           3
    49       26           0
    49       50           2
    49       58           2
    49       64           4
    49       66           1
    49       82           3
    50        3           2
    50       15           1
    50       44           3
    50       46           3
    50       48           3
    50       50           0
    50       56           2
    50       61           3
    50       71           1
    50       84           3
    51       15           0
    51       22           0
    51       30           4
    51       33           3
    51       40           3
    51       46           4
    51       52           4
    51       66           2
    51       67           3
    51       82           3
    52        1           0
    52        9           1
    52       21           3
    52       51           3
    52       56           2
    52       61           1
    52       79           3
    52       84           0
    52       86           4
    52       92           1
    53        8           1
    53        9           3
    53       10           1
    53       22           2
    53       36           1
    53       66           1
    53       72           3
    53       85           1
    53       96           0
    53      100           0
    54       22           0
    54       24           3
    54       32           4
    54       36           1
    54       45           1
    54       46           1
    54       50           0
    54       80           3
    54       83           4
    54       84           3
    55        6           0
    55       16           4
    55       26           1
    55       29           1
    55       37           4
    55       40           4
    55       64           4
    55       71           1
    55       80           0
    55       98           0
    56        1           3
    56       16           2
    56       30           0
    56       31           0
    56       35           0
    56       38           0
    56       54           2
    56       78           2
    56       82           1
    56       93           3
    57        1           2
    57        7           3
    57        8           0
    57        9           2
    57       23           3
    57       34           2
    57       49           0
    57       51           0
    57       75           4
    57       77           4
    58        7           4
    58       28           2
    58       29           3
    58       39           0
    58       43           4
    58       55           0
    58       65           4
    58       66           2
    58       72           2
    58       79           3
    59       14           1
    59       21           4
    59       50           2
    59       51           2
    59       64           3
    59       68           1
    59       73           0
    59       75           4
    59       94           1
    59       95           3
    60       14           3
    60       19           3
    60       29           3
    60       47           0
    60       49           2
    60       51           0
    60       67           2
    60       76           3
    60       87           2
    60       95           1
    61        6           1
    61        9           3
    61       28           0
    61       31           1
    61       32           3
    61       37           2
    61       44           0
    61       52           3
    61       62           2
    61       77           1
    62        9           2
    62       10           3
    62       31           1
    62       34           1
    62       68           4
    62       73           0
    62       80           2
    62       83           4
    62       85           2
    62       99           3
    63       12           4
    63       32           0
    63       52           3
    63       55           4
    63       60           3
    63       63           3
    63       69           0
    63       73           3
    63       87           2
    63       99           4
    64        7           1
    64        8           1
    64       27           3
    64       36           3
    64       44           0
    64       49           4
    64       54           2
    64       70           4
    64       73           1
    64       95           2
    65        1           1
    65       28           3
    65       30           4
    65       33           4
    65       43           3
    65       44           4
    65       50           3
    65       66           4
    65       85           4
    65       98           0
    66        3           1
    66        8           4
    66       29           0
    66       32           4
    66       50           3
    66       55           2
    66       57           0
    66       64           4
    66       76           0
    66       84           2
    67       25           1
    67       43           1
    67       47           3
    67       62           4
    67       71           0
    67       75           2
    67       78           1
    67       81           2
    67       84           1
    67       91           3
    68        3           0
    68        9           0
    68       19           2
    68       20           0
    68       29           3
    68       44           2
    68       63           3
    68       64           2
    68       81           3
    68       97           4
    69        9           0
    69       16           2
    69       27           4
    69       30           1
    69       37           2
    69       43           3
    69       46           1
    69       50           2
    69       60           3
    69       76           0
    70        1           0
    70        2           1
    70        7           2
    70       22           0
    70       25           4
    70       32           4
    70       37           0
    70       61           2
    70       78           2
    70       97           2
    71       15           3
    71       16           4
    71       25           2
    71       26           3
    71       30           3
    71       52           1
    71       53           3
    71       59           2
    71       60           3
    71      100           2
    72       12           3
    72       13           3
    72       34           4
    72       42           1
    72       53           1
    72       64           4
    72       83           0
    72       87           1
    72       94           0
    72       96           1
    73        3           2
    73       12           3
    73       35           1
    73       56           0
    73       80           1
    73       85           4
    73       90           4
    73       92           2
    73       96           0
    73       98           0
    74       11           0
    74       19           3
    74       32           0
    74       34           4
    74       36           0
    74       39           0
    74       41           4
    74       55           0
    74       63           4
    74       69           0
    75       16           4
    75       17           4
    75       29           0
    75       36           3
    75       39           0
    75       46           3
    75       51           3
    75       63           2
    75       72           2
    75       84           0
    76        1           1
    76        4           4
    76       12           2
    76       15           3
    76       17           0
    76       30           0
    76       43           1
    76       49           0
    76       61           2
    76       95           0
    77       21           3
    77       31           4
    77       44           1
    77       67           0
    77       68           1
    77       71           4
    77       76           3
    77       77           2
    77       78           4
    77       79           0
    78       10           4
    78       12           4
    78       21           2
    78       28           2
    78       29           2
    78       31           3
    78       45           4
    78       79           3
    78       83           4
    78       98           2
    79        1           4
    79       15           0
    79       17           4
    79       26           0
    79       34           0
    79       58           2
    79       65           0
    79       68           2
    79       83           0
    79       91           0
    80        5           1
    80       10           1
    80       20           0
    80       22           0
    80       35           0
    80       52           3
    80       54           4
    80       75           2
    80       83           0
    80       86           2
    81       14           0
    81       24           1
    81       29           1
    81       34           1
    81       40           2
    81       42           2
    81       76           1
    81       88           3
    81       89           2
    81       96           0
    82        3           2
    82       13           2
    82       15           0
    82       16           0
    82       20           0
    82       46           3
    82       57           4
    82       66           1
    82       87           1
    82       97           0
    83       25           4
    83       29           3
    83       33           0
    83       35           1
    83       62           3
    83       64           2
    83       73           4
    83       75           4
    83       78           4
    83       93           2
    84       25           3
    84       29           0
    84       30           2
    84       41           3
    84       43           1
    84       47           3
    84       55           1
    84       65           2
    84       81           3
    84       99           2
    85       15           1
    85       17           3
    85       21           1
    85       40           1
    85       43           2
    85       47           4
    85       59           4
    85       70           0
    85       80           0
    85       95           2
    86        6           4
    86        9           0
    86       15           4
    86       23           1
    86       26           4
    86       39           3
    86       54           0
    86       72           0
    86       79           3
    86       87           1
    87       12           0
    87       15           2
    87       28           4
    87       36           0
    87       38           2
    87       42           1
    87       59           0
    87       75           4
    87       77           4
    87       83           0
    88        1           4
    88        3           1
    88        6           0
    88       30           0
    88       41           4
    88       43           0
    88       63           3
    88       68           4
    88       78           2
    88       97           3
    89        2           1
    89        7           3
    89       17           4
    89       21           2
    89       58           0
    89       61           2
    89       68           0
    89       74           4
    89       84           0
    89       86           4
    90       24           4
    90       26           4
    90       30           4
    90       43           0
    90       75           0
    90       88           3
    90       89           0
    90       97           3
    90       98           4
    90      100           0
    91        1           4
    91       16           1
    91       18           2
    91       23           3
    91       48           2
    91       49           3
    91       50           0
    91       56           2
    91       75           1
    91       95           1
    92        7           1
    92       11           4
    92       13           3
    92       15           3
    92       25           1
    92       26           4
    92       44           3
    92       63           4
    92       66           3
    92       90           3
    93       10           4
    93       11           0
    93       20           3
    93       22           0
    93       40           0
    93       62           4
    93       85           3
    93       89           1
    93       95           0
    93       99           0
    94        7           0
    94       19           0
    94       24           2
    94       31           3
    94       33           1
    94       64           4
    94       80           2
    94       83           3
    94       94           2
    94      100           1
    95        1           0
    95       10           3
    95       19           3
    95       22           2
    95       27           4
    95       39           2
    95       47           4
    95       48           4
    95       73           3
    95       96           0
    96       11           0
    96       13           0
    96       28           4
    96       30           0
    96       63           4
    96       72           4
    96       78           4
    96       85           0
    96       86           1
    96       89           3
    97        2           1
    97       24           2
    97       29           3
    97       40           3
    97       54           0
    97       72           2
    97       84           3
    97       89           1
    97       95           2
    97       96           0
    98        1           3
    98       13           4
    98       14           3
    98       17           1
    98       35           3
    98       37           2
    98       60           0
    98       69           4
    98       78           3
    98       84           0
    99       17           4
    99       24           2
    99       33           3
    99       51           4
    99       54           4
    99       68           1
    99       72           4
    99       76           0
    99       83           1
    99       92           0
   100        6           1
   100       20           3
   100       22           2
   100       33           4
   100       39           2
   100       41           3
   100       50           0
   100       64           3
   100       66           1
   100       69           2
